NAME: instance_3017
TYPE: TSP
DIMENSION: 20
EDGE_WEIGHT_TYPE: EUC_2D
NODE_COORD_SECTION
0 14.31 48.82
1 26.84 6.70
2 85.95 8.58
3 9.83 77.64
4 32.70 55.51
5 14.64 41.24
6 8.21 50.89
7 17.21 47.10
8 0.67 74.06
9 8.38 13.44
10 57.17 0.96
11 75.36 62.93
12 80.30 94.76
13 72.26 2.17
14 47.62 27.35
15 29.03 33.14
16 83.18 24.90
17 66.16 88.86
18 58.07 92.88
19 63.96 80.36
EOF
